58 78
55 51
96 21
18 53
48 44
96 36
7 37
78 62
62 13
32 5
36 84
74 29
93 15
17 11
90 57
73 7
38 93
91 59
26 74
83 32
32 61
35 94
66 39
45 29
72 21
88 90
21 40
69 45
6 20
53 48
53 27
49 63
48 82
44 18
47 89
16 82
23 68
73 76
68 45
2 6
73 28
3 92
86 50
22 87
23 99
55 49
42 44
17 46
40 45
28 23
56 95
64 83
66 22
55 0
81 13
99 78
21 22
20 17
58 68
48 69
74 84
97 10
48 21
54 54
28 51
82 95
55 73
9 57
39 70
92 20
87 36
87 46
59 54
57 73
11 56
75 14
15 65
37 95
59 27
82 53
89 9
17 85
38 93
55 22
30 37
83 79
55 55
61 29
88 16
81 32
99 86
32 83
52 87
64 10
85 12
34 27
48 69
73 76
30 50
68 62
